WARNING: for repeatability, setting FPU to use double precision
============================[ Problem Statistics ]=============================
|                                                                             |
|  Number of symmetries:          33                                          |
|  Number of invertingSyms:        0                                          |
|  Number of variables:           306                                         |
|  Number of clauses:            2619                                         |
|  Parse time:                   0.00 s                                       |
|                                                                             |
============================[ Search Statistics ]==============================
| Conflicts |          ORIGINAL         |          LEARNT          | Progress |
|           |    Vars  Clauses Literals |    Limit  Clauses Lit/Cl |          |
===============================================================================
|       100 |     306     2619     5508 |      960      103    114 |  0.001 % |
|       250 |     306     2619     5508 |     1056      304     79 |  0.001 % |
|       475 |     306     2619     5508 |     1161      626     72 |  0.001 % |
|       812 |     306     2619     5508 |     1278     1118     69 |  0.001 % |
|      1318 |     306     2619     5508 |     1405      969     68 |  0.001 % |
|      2077 |     306     2619     5508 |     1546     1238     67 |  0.001 % |
|      3216 |     306     2619     5508 |     1701      943     68 |  0.001 % |
|      4924 |     306     2619     5508 |     1871     1242     68 |  0.001 % |
|      7486 |     306     2619     5508 |     2058     1095     70 |  0.001 % |
|     11330 |     306     2619     5508 |     2264     1311     76 |  0.001 % |
|     17096 |     306     2619     5508 |     2490     2377     97 |  0.001 % |
|     25745 |     306     2619     5508 |     2739     2018    121 |  0.001 % |
|     38719 |     306     2619     5508 |     3013     1700    103 |  0.001 % |
|     58180 |     306     2619     5508 |     3315     2327    121 |  0.001 % |
|     87372 |     306     2619     5508 |     3646     3324    115 |  0.001 % |
|    131161 |     306     2619     5508 |     4011     2382    124 |  0.001 % |
|    196845 |     306     2619     5508 |     4412     3007    125 |  0.001 % |
|    295371 |     306     2619     5508 |     4853     2812    118 |  0.001 % |
|    443160 |     306     2619     5508 |     5339     4714    118 |  0.001 % |
|    664843 |     306     2619     5508 |     5873     3934    113 |  0.001 % |
|    997368 |     306     2619     5508 |     6460     5351    111 |  0.001 % |
|   1496156 |     306     2619     5508 |     7106     5189    122 |  0.001 % |
|   2244338 |     306     2619     5508 |     7817     6023    130 |  0.001 % |
|   3366612 |     306     2619     5508 |     8598     6130    121 |  0.001 % |
|   5050023 |     306     2619     5508 |     9458     5340    123 |  0.001 % |
|   7575139 |     306     2619     5508 |    10404     9344    130 |  0.001 % |
|  11362814 |     306     2619     5508 |    11445     9827     87 |  0.019 % |
|  17044326 |     306     2619     5508 |    12589     6874    124 |  0.001 % |
===============================================================================
restarts              : 32767
conflicts             : 23552396       (16736 /sec)
symconflicts          : 1713452        (1218 /sec)
decisions             : 37878984       (0.00 % random) (26917 /sec)
propagations          : 459867725      (326782 /sec)
sympropagations       : 5990429        (4257 /sec)
conflict literals     : 2832185993     (7.23 % deleted)
Memory used           : 64.00 MB
CPU time              : 1407.26 s

UNSATISFIABLE
